letting n =  10
letting blocks =  [[1, 2], [1, 5], [1, 7], [1, 8], [1, 9], [2, 1], [2, 2], [2, 4], [2, 7], [2, 8], [2, 10], [3, 1], [3, 3], [3, 5], [3, 7], [3, 8], [3, 9], [4, 1], [4, 3], [4, 4], [4, 6], [4, 9], [4, 10], [5, 2], [5, 3], [5, 5], [5, 6], [5, 7], [5, 9], [6, 1], [6, 3], [6, 4], [6, 6], [6, 8], [6, 10], [7, 4], [7, 7], [7, 8], [7, 10], [8, 1], [8, 2], [8, 4], [8, 6], [8, 9], [8, 10], [9, 2], [9, 3], [9, 4], [9, 5], [9, 6], [9, 7], [10, 2], [10, 6], [10, 8], [10, 9], [10, 10]]
